CLT05
Position Depot: Center
Horizon for Depot: Large
Position of customers: Cluster
Distribution of the demand: Medium
Width of time windows: Tight
Distribution of the service: Large

VEHICLE 
NUMBER 	 CAPACITY 
 16 	 	 104 
 
CUSTOMER
CUST NO. 	 XCOORD.  	 YCOORD. 	 DEMAND 	 READY TIME 	 DUE DATE 	 SERVICE TIME 
 0 	 	 500 	 	 500 	 	 0 	 	 0 	 	 4351 	 	 0 
  1 	 	 723 	 	 297 	 	 10 	 	 467 	 	 618 	 	 112 
  2 	 	 600 	 	 915 	 	 10 	 	 364 	 	 469 	 	 186 
  3 	 	 767 	 	 517 	 	 57 	 	 1576 	 	 1763 	 	 110 
  4 	 	 430 	 	 12 	 	 10 	 	 2160 	 	 2331 	 	 128 
  5 	 	 598 	 	 115 	 	 8 	 	 3598 	 	 3755 	 	 148 
  6 	 	 493 	 	 825 	 	 3 	 	 3037 	 	 3141 	 	 139 
  7 	 	 889 	 	 80 	 	 5 	 	 2010 	 	 2071 	 	 157 
  8 	 	 302 	 	 534 	 	 8 	 	 3460 	 	 3628 	 	 161 
  9 	 	 640 	 	 841 	 	 2 	 	 2164 	 	 2341 	 	 114 
  10 	 	 855 	 	 149 	 	 6 	 	 1881 	 	 1968 	 	 105 
  11 	 	 573 	 	 854 	 	 68 	 	 2326 	 	 2392 	 	 145 
  12 	 	 594 	 	 821 	 	 2 	 	 3706 	 	 3757 	 	 145 
  13 	 	 745 	 	 273 	 	 1 	 	 1468 	 	 1553 	 	 119 
  14 	 	 355 	 	 427 	 	 7 	 	 1807 	 	 1880 	 	 137 
  15 	 	 621 	 	 163 	 	 3 	 	 2312 	 	 2403 	 	 156 
  16 	 	 624 	 	 345 	 	 5 	 	 2654 	 	 2751 	 	 160 
  17 	 	 587 	 	 89 	 	 65 	 	 4121 	 	 4312 	 	 123 
  18 	 	 502 	 	 156 	 	 2 	 	 765 	 	 854 	 	 109 
  19 	 	 332 	 	 912 	 	 68 	 	 2424 	 	 2589 	 	 115 
  20 	 	 617 	 	 137 	 	 10 	 	 3152 	 	 3275 	 	 199 
  21 	 	 833 	 	 480 	 	 5 	 	 3894 	 	 3950 	 	 185 
  22 	 	 327 	 	 558 	 	 61 	 	 776 	 	 874 	 	 115 
  23 	 	 560 	 	 734 	 	 1 	 	 2347 	 	 2401 	 	 192 
  24 	 	 805 	 	 488 	 	 1 	 	 2342 	 	 2459 	 	 116 
  25 	 	 520 	 	 26 	 	 3 	 	 2043 	 	 2152 	 	 104 
  26 	 	 566 	 	 990 	 	 1 	 	 710 	 	 781 	 	 138 
  27 	 	 672 	 	 230 	 	 3 	 	 2773 	 	 2851 	 	 148 
  28 	 	 534 	 	 830 	 	 7 	 	 2699 	 	 2803 	 	 108 
  29 	 	 803 	 	 450 	 	 6 	 	 3668 	 	 3809 	 	 187 
  30 	 	 383 	 	 30 	 	 2 	 	 1570 	 	 1763 	 	 133 
  31 	 	 734 	 	 518 	 	 95 	 	 2971 	 	 3064 	 	 150 
  32 	 	 792 	 	 244 	 	 3 	 	 3789 	 	 3955 	 	 114 
  33 	 	 813 	 	 430 	 	 2 	 	 494 	 	 692 	 	 151 
  34 	 	 610 	 	 910 	 	 2 	 	 1272 	 	 1408 	 	 128 
  35 	 	 858 	 	 136 	 	 2 	 	 2300 	 	 2398 	 	 187 
  36 	 	 481 	 	 187 	 	 5 	 	 758 	 	 940 	 	 184 
  37 	 	 640 	 	 921 	 	 10 	 	 2488 	 	 2604 	 	 150 
  38 	 	 404 	 	 20 	 	 1 	 	 4199 	 	 4333 	 	 191 
  39 	 	 587 	 	 791 	 	 10 	 	 489 	 	 642 	 	 188 
  40 	 	 405 	 	 220 	 	 5 	 	 402 	 	 499 	 	 102 
  41 	 	 382 	 	 543 	 	 2 	 	 682 	 	 761 	 	 180 
  42 	 	 564 	 	 360 	 	 10 	 	 4212 	 	 4262 	 	 143 
  43 	 	 513 	 	 810 	 	 7 	 	 676 	 	 820 	 	 179 
  44 	 	 247 	 	 617 	 	 2 	 	 2457 	 	 2580 	 	 117 
  45 	 	 390 	 	 18 	 	 84 	 	 699 	 	 871 	 	 170 
  46 	 	 734 	 	 272 	 	 10 	 	 4229 	 	 4292 	 	 127 
  47 	 	 511 	 	 837 	 	 7 	 	 2075 	 	 2131 	 	 159 
  48 	 	 561 	 	 80 	 	 94 	 	 2472 	 	 2613 	 	 177 
  49 	 	 841 	 	 644 	 	 5 	 	 218 	 	 407 	 	 180 
  50 	 	 364 	 	 58 	 	 8 	 	 1106 	 	 1184 	 	 148 
 